id: 1050
name: dolom1
group: miplib2010
method: 1

Gurobi 7.0.2 (linux64, Matlab) logging started Thu Apr 19 16:11:48 2018


Gurobi 7.0.2 (linux64) logging started Thu Apr 19 16:11:48 2018

Optimize a model with 1803 rows, 11612 columns and 190413 nonzeros
Coefficient statistics:
  Matrix range     [1e+00, 1e+08]
  Objective range  [2e+02, 1e+08]
  Bounds range     [1e+00, 1e+00]
  RHS range        [1e+00, 1e+10]
Warning: Model contains large rhs
         Consider reformulating model or setting NumericFocus parameter
         to avoid numerical issues.
Presolve removed 1 rows and 787 columns
Presolve time: 0.06s
Presolved: 1802 rows, 10825 columns, 176976 nonzeros

Iteration    Objective       Primal Inf.    Dual Inf.      Time
       0    0.0000000e+00   1.693000e+03   0.000000e+00      0s
   11194    6.5560661e+06   0.000000e+00   0.000000e+00      3s

Solved in 11194 iterations and 2.62 seconds
Optimal objective  6.556066068e+06
status: OPTIMAL
